p cnf 0 0
c 1 color par vertex et au plus 1
7 8 9 10 11 0
-8 -7 0
-9 -7 0
-10 -7 0
-11 -7 0
-9 -8 0
-10 -8 0
-11 -8 0
-10 -9 0
-11 -9 0
-11 -10 0
12 13 14 15 16 0
-13 -12 0
-14 -12 0
-15 -12 0
-16 -12 0
-14 -13 0
-15 -13 0
-16 -13 0
-15 -14 0
-16 -14 0
-16 -15 0
17 18 19 20 21 0
-18 -17 0
-19 -17 0
-20 -17 0
-21 -17 0
-19 -18 0
-20 -18 0
-21 -18 0
-20 -19 0
-21 -19 0
-21 -20 0
22 23 24 25 26 0
-23 -22 0
-24 -22 0
-25 -22 0
-26 -22 0
-24 -23 0
-25 -23 0
-26 -23 0
-25 -24 0
-26 -24 0
-26 -25 0
27 28 29 30 31 0
-28 -27 0
-29 -27 0
-30 -27 0
-31 -27 0
-29 -28 0
-30 -28 0
-31 -28 0
-30 -29 0
-31 -29 0
-31 -30 0
32 33 34 35 36 0
-33 -32 0
-34 -32 0
-35 -32 0
-36 -32 0
-34 -33 0
-35 -33 0
-36 -33 0
-35 -34 0
-36 -34 0
-36 -35 0
37 38 39 40 41 0
-38 -37 0
-39 -37 0
-40 -37 0
-41 -37 0
-39 -38 0
-40 -38 0
-41 -38 0
-40 -39 0
-41 -39 0
-41 -40 0
c gc coresp to G
-7 -13 42 0
-7 -13 -43 1 0
-7 -13 43 -1 0
-7 -14 44 0
-7 -14 -45 1 0
-7 -14 45 -1 0
-7 -15 46 0
-7 -15 -47 1 0
-7 -15 47 -1 0
-7 -16 48 0
-7 -16 -49 1 0
-7 -16 49 -1 0
-8 -12 42 0
-8 -12 -43 1 0
-8 -12 43 -1 0
-8 -14 50 0
-8 -14 -51 1 0
-8 -14 51 -1 0
-8 -15 52 0
-8 -15 -53 1 0
-8 -15 53 -1 0
-8 -16 54 0
-8 -16 -55 1 0
-8 -16 55 -1 0
-9 -12 44 0
-9 -12 -45 1 0
-9 -12 45 -1 0
-9 -13 50 0
-9 -13 -51 1 0
-9 -13 51 -1 0
-9 -15 56 0
-9 -15 -57 1 0
-9 -15 57 -1 0
-9 -16 58 0
-9 -16 -59 1 0
-9 -16 59 -1 0
-10 -12 46 0
-10 -12 -47 1 0
-10 -12 47 -1 0
-10 -13 52 0
-10 -13 -53 1 0
-10 -13 53 -1 0
-10 -14 56 0
-10 -14 -57 1 0
-10 -14 57 -1 0
-10 -16 60 0
-10 -16 -61 1 0
-10 -16 61 -1 0
-11 -12 48 0
-11 -12 -49 1 0
-11 -12 49 -1 0
-11 -13 54 0
-11 -13 -55 1 0
-11 -13 55 -1 0
-11 -14 58 0
-11 -14 -59 1 0
-11 -14 59 -1 0
-11 -15 60 0
-11 -15 -61 1 0
-11 -15 61 -1 0
-12 -18 42 0
-12 -18 -43 2 0
-12 -18 43 -2 0
-12 -19 44 0
-12 -19 -45 2 0
-12 -19 45 -2 0
-12 -20 46 0
-12 -20 -47 2 0
-12 -20 47 -2 0
-12 -21 48 0
-12 -21 -49 2 0
-12 -21 49 -2 0
-13 -17 42 0
-13 -17 -43 2 0
-13 -17 43 -2 0
-13 -19 50 0
-13 -19 -51 2 0
-13 -19 51 -2 0
-13 -20 52 0
-13 -20 -53 2 0
-13 -20 53 -2 0
-13 -21 54 0
-13 -21 -55 2 0
-13 -21 55 -2 0
-14 -17 44 0
-14 -17 -45 2 0
-14 -17 45 -2 0
-14 -18 50 0
-14 -18 -51 2 0
-14 -18 51 -2 0
-14 -20 56 0
-14 -20 -57 2 0
-14 -20 57 -2 0
-14 -21 58 0
-14 -21 -59 2 0
-14 -21 59 -2 0
-15 -17 46 0
-15 -17 -47 2 0
-15 -17 47 -2 0
-15 -18 52 0
-15 -18 -53 2 0
-15 -18 53 -2 0
-15 -19 56 0
-15 -19 -57 2 0
-15 -19 57 -2 0
-15 -21 60 0
-15 -21 -61 2 0
-15 -21 61 -2 0
-16 -17 48 0
-16 -17 -49 2 0
-16 -17 49 -2 0
-16 -18 54 0
-16 -18 -55 2 0
-16 -18 55 -2 0
-16 -19 58 0
-16 -19 -59 2 0
-16 -19 59 -2 0
-16 -20 60 0
-16 -20 -61 2 0
-16 -20 61 -2 0
-17 -23 42 0
-17 -23 -43 3 0
-17 -23 43 -3 0
-17 -24 44 0
-17 -24 -45 3 0
-17 -24 45 -3 0
-17 -25 46 0
-17 -25 -47 3 0
-17 -25 47 -3 0
-17 -26 48 0
-17 -26 -49 3 0
-17 -26 49 -3 0
-18 -22 42 0
-18 -22 -43 3 0
-18 -22 43 -3 0
-18 -24 50 0
-18 -24 -51 3 0
-18 -24 51 -3 0
-18 -25 52 0
-18 -25 -53 3 0
-18 -25 53 -3 0
-18 -26 54 0
-18 -26 -55 3 0
-18 -26 55 -3 0
-19 -22 44 0
-19 -22 -45 3 0
-19 -22 45 -3 0
-19 -23 50 0
-19 -23 -51 3 0
-19 -23 51 -3 0
-19 -25 56 0
-19 -25 -57 3 0
-19 -25 57 -3 0
-19 -26 58 0
-19 -26 -59 3 0
-19 -26 59 -3 0
-20 -22 46 0
-20 -22 -47 3 0
-20 -22 47 -3 0
-20 -23 52 0
-20 -23 -53 3 0
-20 -23 53 -3 0
-20 -24 56 0
-20 -24 -57 3 0
-20 -24 57 -3 0
-20 -26 60 0
-20 -26 -61 3 0
-20 -26 61 -3 0
-21 -22 48 0
-21 -22 -49 3 0
-21 -22 49 -3 0
-21 -23 54 0
-21 -23 -55 3 0
-21 -23 55 -3 0
-21 -24 58 0
-21 -24 -59 3 0
-21 -24 59 -3 0
-21 -25 60 0
-21 -25 -61 3 0
-21 -25 61 -3 0
-22 -28 42 0
-22 -28 -43 4 0
-22 -28 43 -4 0
-22 -29 44 0
-22 -29 -45 4 0
-22 -29 45 -4 0
-22 -30 46 0
-22 -30 -47 4 0
-22 -30 47 -4 0
-22 -31 48 0
-22 -31 -49 4 0
-22 -31 49 -4 0
-23 -27 42 0
-23 -27 -43 4 0
-23 -27 43 -4 0
-23 -29 50 0
-23 -29 -51 4 0
-23 -29 51 -4 0
-23 -30 52 0
-23 -30 -53 4 0
-23 -30 53 -4 0
-23 -31 54 0
-23 -31 -55 4 0
-23 -31 55 -4 0
-24 -27 44 0
-24 -27 -45 4 0
-24 -27 45 -4 0
-24 -28 50 0
-24 -28 -51 4 0
-24 -28 51 -4 0
-24 -30 56 0
-24 -30 -57 4 0
-24 -30 57 -4 0
-24 -31 58 0
-24 -31 -59 4 0
-24 -31 59 -4 0
-25 -27 46 0
-25 -27 -47 4 0
-25 -27 47 -4 0
-25 -28 52 0
-25 -28 -53 4 0
-25 -28 53 -4 0
-25 -29 56 0
-25 -29 -57 4 0
-25 -29 57 -4 0
-25 -31 60 0
-25 -31 -61 4 0
-25 -31 61 -4 0
-26 -27 48 0
-26 -27 -49 4 0
-26 -27 49 -4 0
-26 -28 54 0
-26 -28 -55 4 0
-26 -28 55 -4 0
-26 -29 58 0
-26 -29 -59 4 0
-26 -29 59 -4 0
-26 -30 60 0
-26 -30 -61 4 0
-26 -30 61 -4 0
-27 -33 42 0
-27 -33 -43 5 0
-27 -33 43 -5 0
-27 -34 44 0
-27 -34 -45 5 0
-27 -34 45 -5 0
-27 -35 46 0
-27 -35 -47 5 0
-27 -35 47 -5 0
-27 -36 48 0
-27 -36 -49 5 0
-27 -36 49 -5 0
-28 -32 42 0
-28 -32 -43 5 0
-28 -32 43 -5 0
-28 -34 50 0
-28 -34 -51 5 0
-28 -34 51 -5 0
-28 -35 52 0
-28 -35 -53 5 0
-28 -35 53 -5 0
-28 -36 54 0
-28 -36 -55 5 0
-28 -36 55 -5 0
-29 -32 44 0
-29 -32 -45 5 0
-29 -32 45 -5 0
-29 -33 50 0
-29 -33 -51 5 0
-29 -33 51 -5 0
-29 -35 56 0
-29 -35 -57 5 0
-29 -35 57 -5 0
-29 -36 58 0
-29 -36 -59 5 0
-29 -36 59 -5 0
-30 -32 46 0
-30 -32 -47 5 0
-30 -32 47 -5 0
-30 -33 52 0
-30 -33 -53 5 0
-30 -33 53 -5 0
-30 -34 56 0
-30 -34 -57 5 0
-30 -34 57 -5 0
-30 -36 60 0
-30 -36 -61 5 0
-30 -36 61 -5 0
-31 -32 48 0
-31 -32 -49 5 0
-31 -32 49 -5 0
-31 -33 54 0
-31 -33 -55 5 0
-31 -33 55 -5 0
-31 -34 58 0
-31 -34 -59 5 0
-31 -34 59 -5 0
-31 -35 60 0
-31 -35 -61 5 0
-31 -35 61 -5 0
-32 -38 42 0
-32 -38 -43 6 0
-32 -38 43 -6 0
-32 -39 44 0
-32 -39 -45 6 0
-32 -39 45 -6 0
-32 -40 46 0
-32 -40 -47 6 0
-32 -40 47 -6 0
-32 -41 48 0
-32 -41 -49 6 0
-32 -41 49 -6 0
-33 -37 42 0
-33 -37 -43 6 0
-33 -37 43 -6 0
-33 -39 50 0
-33 -39 -51 6 0
-33 -39 51 -6 0
-33 -40 52 0
-33 -40 -53 6 0
-33 -40 53 -6 0
-33 -41 54 0
-33 -41 -55 6 0
-33 -41 55 -6 0
-34 -37 44 0
-34 -37 -45 6 0
-34 -37 45 -6 0
-34 -38 50 0
-34 -38 -51 6 0
-34 -38 51 -6 0
-34 -40 56 0
-34 -40 -57 6 0
-34 -40 57 -6 0
-34 -41 58 0
-34 -41 -59 6 0
-34 -41 59 -6 0
-35 -37 46 0
-35 -37 -47 6 0
-35 -37 47 -6 0
-35 -38 52 0
-35 -38 -53 6 0
-35 -38 53 -6 0
-35 -39 56 0
-35 -39 -57 6 0
-35 -39 57 -6 0
-35 -41 60 0
-35 -41 -61 6 0
-35 -41 61 -6 0
-36 -37 48 0
-36 -37 -49 6 0
-36 -37 49 -6 0
-36 -38 54 0
-36 -38 -55 6 0
-36 -38 55 -6 0
-36 -39 58 0
-36 -39 -59 6 0
-36 -39 59 -6 0
-36 -40 60 0
-36 -40 -61 6 0
-36 -40 61 -6 0
c X
-63 7 0
-62 7 0
-63 13 0
-62 13 0
-63 1 0
-62 -1 0
63 -7 -13 -1 0
62 -7 -13 1 0
-65 7 0
-64 7 0
-65 14 0
-64 14 0
-65 1 0
-64 -1 0
65 -7 -14 -1 0
64 -7 -14 1 0
-67 7 0
-66 7 0
-67 15 0
-66 15 0
-67 1 0
-66 -1 0
67 -7 -15 -1 0
66 -7 -15 1 0
-69 7 0
-68 7 0
-69 16 0
-68 16 0
-69 1 0
-68 -1 0
69 -7 -16 -1 0
68 -7 -16 1 0
-71 8 0
-70 8 0
-71 12 0
-70 12 0
-71 1 0
-70 -1 0
71 -8 -12 -1 0
70 -8 -12 1 0
-73 8 0
-72 8 0
-73 14 0
-72 14 0
-73 1 0
-72 -1 0
73 -8 -14 -1 0
72 -8 -14 1 0
-75 8 0
-74 8 0
-75 15 0
-74 15 0
-75 1 0
-74 -1 0
75 -8 -15 -1 0
74 -8 -15 1 0
-77 8 0
-76 8 0
-77 16 0
-76 16 0
-77 1 0
-76 -1 0
77 -8 -16 -1 0
76 -8 -16 1 0
-79 9 0
-78 9 0
-79 12 0
-78 12 0
-79 1 0
-78 -1 0
79 -9 -12 -1 0
78 -9 -12 1 0
-81 9 0
-80 9 0
-81 13 0
-80 13 0
-81 1 0
-80 -1 0
81 -9 -13 -1 0
80 -9 -13 1 0
-83 9 0
-82 9 0
-83 15 0
-82 15 0
-83 1 0
-82 -1 0
83 -9 -15 -1 0
82 -9 -15 1 0
-85 9 0
-84 9 0
-85 16 0
-84 16 0
-85 1 0
-84 -1 0
85 -9 -16 -1 0
84 -9 -16 1 0
-87 10 0
-86 10 0
-87 12 0
-86 12 0
-87 1 0
-86 -1 0
87 -10 -12 -1 0
86 -10 -12 1 0
-89 10 0
-88 10 0
-89 13 0
-88 13 0
-89 1 0
-88 -1 0
89 -10 -13 -1 0
88 -10 -13 1 0
-91 10 0
-90 10 0
-91 14 0
-90 14 0
-91 1 0
-90 -1 0
91 -10 -14 -1 0
90 -10 -14 1 0
-93 10 0
-92 10 0
-93 16 0
-92 16 0
-93 1 0
-92 -1 0
93 -10 -16 -1 0
92 -10 -16 1 0
-95 11 0
-94 11 0
-95 12 0
-94 12 0
-95 1 0
-94 -1 0
95 -11 -12 -1 0
94 -11 -12 1 0
-97 11 0
-96 11 0
-97 13 0
-96 13 0
-97 1 0
-96 -1 0
97 -11 -13 -1 0
96 -11 -13 1 0
-99 11 0
-98 11 0
-99 14 0
-98 14 0
-99 1 0
-98 -1 0
99 -11 -14 -1 0
98 -11 -14 1 0
-101 11 0
-100 11 0
-101 15 0
-100 15 0
-101 1 0
-100 -1 0
101 -11 -15 -1 0
100 -11 -15 1 0
-103 12 0
-102 12 0
-103 18 0
-102 18 0
-103 2 0
-102 -2 0
103 -12 -18 -2 0
102 -12 -18 2 0
-105 12 0
-104 12 0
-105 19 0
-104 19 0
-105 2 0
-104 -2 0
105 -12 -19 -2 0
104 -12 -19 2 0
-107 12 0
-106 12 0
-107 20 0
-106 20 0
-107 2 0
-106 -2 0
107 -12 -20 -2 0
106 -12 -20 2 0
-109 12 0
-108 12 0
-109 21 0
-108 21 0
-109 2 0
-108 -2 0
109 -12 -21 -2 0
108 -12 -21 2 0
-111 13 0
-110 13 0
-111 17 0
-110 17 0
-111 2 0
-110 -2 0
111 -13 -17 -2 0
110 -13 -17 2 0
-113 13 0
-112 13 0
-113 19 0
-112 19 0
-113 2 0
-112 -2 0
113 -13 -19 -2 0
112 -13 -19 2 0
-115 13 0
-114 13 0
-115 20 0
-114 20 0
-115 2 0
-114 -2 0
115 -13 -20 -2 0
114 -13 -20 2 0
-117 13 0
-116 13 0
-117 21 0
-116 21 0
-117 2 0
-116 -2 0
117 -13 -21 -2 0
116 -13 -21 2 0
-119 14 0
-118 14 0
-119 17 0
-118 17 0
-119 2 0
-118 -2 0
119 -14 -17 -2 0
118 -14 -17 2 0
-121 14 0
-120 14 0
-121 18 0
-120 18 0
-121 2 0
-120 -2 0
121 -14 -18 -2 0
120 -14 -18 2 0
-123 14 0
-122 14 0
-123 20 0
-122 20 0
-123 2 0
-122 -2 0
123 -14 -20 -2 0
122 -14 -20 2 0
-125 14 0
-124 14 0
-125 21 0
-124 21 0
-125 2 0
-124 -2 0
125 -14 -21 -2 0
124 -14 -21 2 0
-127 15 0
-126 15 0
-127 17 0
-126 17 0
-127 2 0
-126 -2 0
127 -15 -17 -2 0
126 -15 -17 2 0
-129 15 0
-128 15 0
-129 18 0
-128 18 0
-129 2 0
-128 -2 0
129 -15 -18 -2 0
128 -15 -18 2 0
-131 15 0
-130 15 0
-131 19 0
-130 19 0
-131 2 0
-130 -2 0
131 -15 -19 -2 0
130 -15 -19 2 0
-133 15 0
-132 15 0
-133 21 0
-132 21 0
-133 2 0
-132 -2 0
133 -15 -21 -2 0
132 -15 -21 2 0
-135 16 0
-134 16 0
-135 17 0
-134 17 0
-135 2 0
-134 -2 0
135 -16 -17 -2 0
134 -16 -17 2 0
-137 16 0
-136 16 0
-137 18 0
-136 18 0
-137 2 0
-136 -2 0
137 -16 -18 -2 0
136 -16 -18 2 0
-139 16 0
-138 16 0
-139 19 0
-138 19 0
-139 2 0
-138 -2 0
139 -16 -19 -2 0
138 -16 -19 2 0
-141 16 0
-140 16 0
-141 20 0
-140 20 0
-141 2 0
-140 -2 0
141 -16 -20 -2 0
140 -16 -20 2 0
-143 17 0
-142 17 0
-143 23 0
-142 23 0
-143 3 0
-142 -3 0
143 -17 -23 -3 0
142 -17 -23 3 0
-145 17 0
-144 17 0
-145 24 0
-144 24 0
-145 3 0
-144 -3 0
145 -17 -24 -3 0
144 -17 -24 3 0
-147 17 0
-146 17 0
-147 25 0
-146 25 0
-147 3 0
-146 -3 0
147 -17 -25 -3 0
146 -17 -25 3 0
-149 17 0
-148 17 0
-149 26 0
-148 26 0
-149 3 0
-148 -3 0
149 -17 -26 -3 0
148 -17 -26 3 0
-151 18 0
-150 18 0
-151 22 0
-150 22 0
-151 3 0
-150 -3 0
151 -18 -22 -3 0
150 -18 -22 3 0
-153 18 0
-152 18 0
-153 24 0
-152 24 0
-153 3 0
-152 -3 0
153 -18 -24 -3 0
152 -18 -24 3 0
-155 18 0
-154 18 0
-155 25 0
-154 25 0
-155 3 0
-154 -3 0
155 -18 -25 -3 0
154 -18 -25 3 0
-157 18 0
-156 18 0
-157 26 0
-156 26 0
-157 3 0
-156 -3 0
157 -18 -26 -3 0
156 -18 -26 3 0
-159 19 0
-158 19 0
-159 22 0
-158 22 0
-159 3 0
-158 -3 0
159 -19 -22 -3 0
158 -19 -22 3 0
-161 19 0
-160 19 0
-161 23 0
-160 23 0
-161 3 0
-160 -3 0
161 -19 -23 -3 0
160 -19 -23 3 0
-163 19 0
-162 19 0
-163 25 0
-162 25 0
-163 3 0
-162 -3 0
163 -19 -25 -3 0
162 -19 -25 3 0
-165 19 0
-164 19 0
-165 26 0
-164 26 0
-165 3 0
-164 -3 0
165 -19 -26 -3 0
164 -19 -26 3 0
-167 20 0
-166 20 0
-167 22 0
-166 22 0
-167 3 0
-166 -3 0
167 -20 -22 -3 0
166 -20 -22 3 0
-169 20 0
-168 20 0
-169 23 0
-168 23 0
-169 3 0
-168 -3 0
169 -20 -23 -3 0
168 -20 -23 3 0
-171 20 0
-170 20 0
-171 24 0
-170 24 0
-171 3 0
-170 -3 0
171 -20 -24 -3 0
170 -20 -24 3 0
-173 20 0
-172 20 0
-173 26 0
-172 26 0
-173 3 0
-172 -3 0
173 -20 -26 -3 0
172 -20 -26 3 0
-175 21 0
-174 21 0
-175 22 0
-174 22 0
-175 3 0
-174 -3 0
175 -21 -22 -3 0
174 -21 -22 3 0
-177 21 0
-176 21 0
-177 23 0
-176 23 0
-177 3 0
-176 -3 0
177 -21 -23 -3 0
176 -21 -23 3 0
-179 21 0
-178 21 0
-179 24 0
-178 24 0
-179 3 0
-178 -3 0
179 -21 -24 -3 0
178 -21 -24 3 0
-181 21 0
-180 21 0
-181 25 0
-180 25 0
-181 3 0
-180 -3 0
181 -21 -25 -3 0
180 -21 -25 3 0
-183 22 0
-182 22 0
-183 28 0
-182 28 0
-183 4 0
-182 -4 0
183 -22 -28 -4 0
182 -22 -28 4 0
-185 22 0
-184 22 0
-185 29 0
-184 29 0
-185 4 0
-184 -4 0
185 -22 -29 -4 0
184 -22 -29 4 0
-187 22 0
-186 22 0
-187 30 0
-186 30 0
-187 4 0
-186 -4 0
187 -22 -30 -4 0
186 -22 -30 4 0
-189 22 0
-188 22 0
-189 31 0
-188 31 0
-189 4 0
-188 -4 0
189 -22 -31 -4 0
188 -22 -31 4 0
-191 23 0
-190 23 0
-191 27 0
-190 27 0
-191 4 0
-190 -4 0
191 -23 -27 -4 0
190 -23 -27 4 0
-193 23 0
-192 23 0
-193 29 0
-192 29 0
-193 4 0
-192 -4 0
193 -23 -29 -4 0
192 -23 -29 4 0
-195 23 0
-194 23 0
-195 30 0
-194 30 0
-195 4 0
-194 -4 0
195 -23 -30 -4 0
194 -23 -30 4 0
-197 23 0
-196 23 0
-197 31 0
-196 31 0
-197 4 0
-196 -4 0
197 -23 -31 -4 0
196 -23 -31 4 0
-199 24 0
-198 24 0
-199 27 0
-198 27 0
-199 4 0
-198 -4 0
199 -24 -27 -4 0
198 -24 -27 4 0
-201 24 0
-200 24 0
-201 28 0
-200 28 0
-201 4 0
-200 -4 0
201 -24 -28 -4 0
200 -24 -28 4 0
-203 24 0
-202 24 0
-203 30 0
-202 30 0
-203 4 0
-202 -4 0
203 -24 -30 -4 0
202 -24 -30 4 0
-205 24 0
-204 24 0
-205 31 0
-204 31 0
-205 4 0
-204 -4 0
205 -24 -31 -4 0
204 -24 -31 4 0
-207 25 0
-206 25 0
-207 27 0
-206 27 0
-207 4 0
-206 -4 0
207 -25 -27 -4 0
206 -25 -27 4 0
-209 25 0
-208 25 0
-209 28 0
-208 28 0
-209 4 0
-208 -4 0
209 -25 -28 -4 0
208 -25 -28 4 0
-211 25 0
-210 25 0
-211 29 0
-210 29 0
-211 4 0
-210 -4 0
211 -25 -29 -4 0
210 -25 -29 4 0
-213 25 0
-212 25 0
-213 31 0
-212 31 0
-213 4 0
-212 -4 0
213 -25 -31 -4 0
212 -25 -31 4 0
-215 26 0
-214 26 0
-215 27 0
-214 27 0
-215 4 0
-214 -4 0
215 -26 -27 -4 0
214 -26 -27 4 0
-217 26 0
-216 26 0
-217 28 0
-216 28 0
-217 4 0
-216 -4 0
217 -26 -28 -4 0
216 -26 -28 4 0
-219 26 0
-218 26 0
-219 29 0
-218 29 0
-219 4 0
-218 -4 0
219 -26 -29 -4 0
218 -26 -29 4 0
-221 26 0
-220 26 0
-221 30 0
-220 30 0
-221 4 0
-220 -4 0
221 -26 -30 -4 0
220 -26 -30 4 0
-223 27 0
-222 27 0
-223 33 0
-222 33 0
-223 5 0
-222 -5 0
223 -27 -33 -5 0
222 -27 -33 5 0
-225 27 0
-224 27 0
-225 34 0
-224 34 0
-225 5 0
-224 -5 0
225 -27 -34 -5 0
224 -27 -34 5 0
-227 27 0
-226 27 0
-227 35 0
-226 35 0
-227 5 0
-226 -5 0
227 -27 -35 -5 0
226 -27 -35 5 0
-229 27 0
-228 27 0
-229 36 0
-228 36 0
-229 5 0
-228 -5 0
229 -27 -36 -5 0
228 -27 -36 5 0
-231 28 0
-230 28 0
-231 32 0
-230 32 0
-231 5 0
-230 -5 0
231 -28 -32 -5 0
230 -28 -32 5 0
-233 28 0
-232 28 0
-233 34 0
-232 34 0
-233 5 0
-232 -5 0
233 -28 -34 -5 0
232 -28 -34 5 0
-235 28 0
-234 28 0
-235 35 0
-234 35 0
-235 5 0
-234 -5 0
235 -28 -35 -5 0
234 -28 -35 5 0
-237 28 0
-236 28 0
-237 36 0
-236 36 0
-237 5 0
-236 -5 0
237 -28 -36 -5 0
236 -28 -36 5 0
-239 29 0
-238 29 0
-239 32 0
-238 32 0
-239 5 0
-238 -5 0
239 -29 -32 -5 0
238 -29 -32 5 0
-241 29 0
-240 29 0
-241 33 0
-240 33 0
-241 5 0
-240 -5 0
241 -29 -33 -5 0
240 -29 -33 5 0
-243 29 0
-242 29 0
-243 35 0
-242 35 0
-243 5 0
-242 -5 0
243 -29 -35 -5 0
242 -29 -35 5 0
-245 29 0
-244 29 0
-245 36 0
-244 36 0
-245 5 0
-244 -5 0
245 -29 -36 -5 0
244 -29 -36 5 0
-247 30 0
-246 30 0
-247 32 0
-246 32 0
-247 5 0
-246 -5 0
247 -30 -32 -5 0
246 -30 -32 5 0
-249 30 0
-248 30 0
-249 33 0
-248 33 0
-249 5 0
-248 -5 0
249 -30 -33 -5 0
248 -30 -33 5 0
-251 30 0
-250 30 0
-251 34 0
-250 34 0
-251 5 0
-250 -5 0
251 -30 -34 -5 0
250 -30 -34 5 0
-253 30 0
-252 30 0
-253 36 0
-252 36 0
-253 5 0
-252 -5 0
253 -30 -36 -5 0
252 -30 -36 5 0
-255 31 0
-254 31 0
-255 32 0
-254 32 0
-255 5 0
-254 -5 0
255 -31 -32 -5 0
254 -31 -32 5 0
-257 31 0
-256 31 0
-257 33 0
-256 33 0
-257 5 0
-256 -5 0
257 -31 -33 -5 0
256 -31 -33 5 0
-259 31 0
-258 31 0
-259 34 0
-258 34 0
-259 5 0
-258 -5 0
259 -31 -34 -5 0
258 -31 -34 5 0
-261 31 0
-260 31 0
-261 35 0
-260 35 0
-261 5 0
-260 -5 0
261 -31 -35 -5 0
260 -31 -35 5 0
-263 32 0
-262 32 0
-263 38 0
-262 38 0
-263 6 0
-262 -6 0
263 -32 -38 -6 0
262 -32 -38 6 0
-265 32 0
-264 32 0
-265 39 0
-264 39 0
-265 6 0
-264 -6 0
265 -32 -39 -6 0
264 -32 -39 6 0
-267 32 0
-266 32 0
-267 40 0
-266 40 0
-267 6 0
-266 -6 0
267 -32 -40 -6 0
266 -32 -40 6 0
-269 32 0
-268 32 0
-269 41 0
-268 41 0
-269 6 0
-268 -6 0
269 -32 -41 -6 0
268 -32 -41 6 0
-271 33 0
-270 33 0
-271 37 0
-270 37 0
-271 6 0
-270 -6 0
271 -33 -37 -6 0
270 -33 -37 6 0
-273 33 0
-272 33 0
-273 39 0
-272 39 0
-273 6 0
-272 -6 0
273 -33 -39 -6 0
272 -33 -39 6 0
-275 33 0
-274 33 0
-275 40 0
-274 40 0
-275 6 0
-274 -6 0
275 -33 -40 -6 0
274 -33 -40 6 0
-277 33 0
-276 33 0
-277 41 0
-276 41 0
-277 6 0
-276 -6 0
277 -33 -41 -6 0
276 -33 -41 6 0
-279 34 0
-278 34 0
-279 37 0
-278 37 0
-279 6 0
-278 -6 0
279 -34 -37 -6 0
278 -34 -37 6 0
-281 34 0
-280 34 0
-281 38 0
-280 38 0
-281 6 0
-280 -6 0
281 -34 -38 -6 0
280 -34 -38 6 0
-283 34 0
-282 34 0
-283 40 0
-282 40 0
-283 6 0
-282 -6 0
283 -34 -40 -6 0
282 -34 -40 6 0
-285 34 0
-284 34 0
-285 41 0
-284 41 0
-285 6 0
-284 -6 0
285 -34 -41 -6 0
284 -34 -41 6 0
-287 35 0
-286 35 0
-287 37 0
-286 37 0
-287 6 0
-286 -6 0
287 -35 -37 -6 0
286 -35 -37 6 0
-289 35 0
-288 35 0
-289 38 0
-288 38 0
-289 6 0
-288 -6 0
289 -35 -38 -6 0
288 -35 -38 6 0
-291 35 0
-290 35 0
-291 39 0
-290 39 0
-291 6 0
-290 -6 0
291 -35 -39 -6 0
290 -35 -39 6 0
-293 35 0
-292 35 0
-293 41 0
-292 41 0
-293 6 0
-292 -6 0
293 -35 -41 -6 0
292 -35 -41 6 0
-295 36 0
-294 36 0
-295 37 0
-294 37 0
-295 6 0
-294 -6 0
295 -36 -37 -6 0
294 -36 -37 6 0
-297 36 0
-296 36 0
-297 38 0
-296 38 0
-297 6 0
-296 -6 0
297 -36 -38 -6 0
296 -36 -38 6 0
-299 36 0
-298 36 0
-299 39 0
-298 39 0
-299 6 0
-298 -6 0
299 -36 -39 -6 0
298 -36 -39 6 0
-301 36 0
-300 36 0
-301 40 0
-300 40 0
-301 6 0
-300 -6 0
301 -36 -40 -6 0
300 -36 -40 6 0
c x suite
-42 -43 63 71 103 111 143 151 183 191 223 231 263 271 0
-44 -45 65 79 105 119 145 159 185 199 225 239 265 279 0
-46 -47 67 87 107 127 147 167 187 207 227 247 267 287 0
-48 -49 69 95 109 135 149 175 189 215 229 255 269 295 0
-50 -51 73 81 113 121 153 161 193 201 233 241 273 281 0
-52 -53 75 89 115 129 155 169 195 209 235 249 275 289 0
-54 -55 77 97 117 137 157 177 197 217 237 257 277 297 0
-56 -57 83 91 123 131 163 171 203 211 243 251 283 291 0
-58 -59 85 99 125 139 165 179 205 219 245 259 285 299 0
-60 -61 93 101 133 141 173 181 213 221 253 261 293 301 0
-42 43 62 70 102 110 142 150 182 190 222 230 262 270 0
-44 45 64 78 104 118 144 158 184 198 224 238 264 278 0
-46 47 66 86 106 126 146 166 186 206 226 246 266 286 0
-48 49 68 94 108 134 148 174 188 214 228 254 268 294 0
-50 51 72 80 112 120 152 160 192 200 232 240 272 280 0
-52 53 74 88 114 128 154 168 194 208 234 248 274 288 0
-54 55 76 96 116 136 156 176 196 216 236 256 276 296 0
-56 57 82 90 122 130 162 170 202 210 242 250 282 290 0
-58 59 84 98 124 138 164 178 204 218 244 258 284 298 0
-60 61 92 100 132 140 172 180 212 220 252 260 292 300 0
c proper colo
-7 -12 0
-8 -13 0
-9 -14 0
-10 -15 0
-11 -16 0
-12 -17 0
-13 -18 0
-14 -19 0
-15 -20 0
-16 -21 0
-17 -22 0
-18 -23 0
-19 -24 0
-20 -25 0
-21 -26 0
-22 -27 0
-23 -28 0
-24 -29 0
-25 -30 0
-26 -31 0
-27 -32 0
-28 -33 0
-29 -34 0
-30 -35 0
-31 -36 0
-32 -37 0
-33 -38 0
-34 -39 0
-35 -40 0
-36 -41 0
42 302 303 304 0
44 305 306 307 0
46 308 309 310 0
48 311 312 313 0
50 314 315 316 0
52 317 318 319 0
54 320 321 322 0
56 323 324 325 0
58 326 327 328 0
60 329 330 331 0
-302 44 0
-302 50 0
-302 45 51 0
-302 -45 -51 0
302 -44 -50 45 -51 0
302 -44 -50 -45 51 0
-303 46 0
-303 52 0
-303 47 53 0
-303 -47 -53 0
303 -46 -52 47 -53 0
303 -46 -52 -47 53 0
-304 48 0
-304 54 0
-304 49 55 0
-304 -49 -55 0
304 -48 -54 49 -55 0
304 -48 -54 -49 55 0
-305 42 0
-305 50 0
-305 43 51 0
-305 -43 -51 0
305 -42 -50 43 -51 0
305 -42 -50 -43 51 0
-306 46 0
-306 56 0
-306 47 57 0
-306 -47 -57 0
306 -46 -56 47 -57 0
306 -46 -56 -47 57 0
-307 48 0
-307 58 0
-307 49 59 0
-307 -49 -59 0
307 -48 -58 49 -59 0
307 -48 -58 -49 59 0
-308 42 0
-308 52 0
-308 43 53 0
-308 -43 -53 0
308 -42 -52 43 -53 0
308 -42 -52 -43 53 0
-309 44 0
-309 56 0
-309 45 57 0
-309 -45 -57 0
309 -44 -56 45 -57 0
309 -44 -56 -45 57 0
-310 48 0
-310 60 0
-310 49 61 0
-310 -49 -61 0
310 -48 -60 49 -61 0
310 -48 -60 -49 61 0
-311 42 0
-311 54 0
-311 43 55 0
-311 -43 -55 0
311 -42 -54 43 -55 0
311 -42 -54 -43 55 0
-312 44 0
-312 58 0
-312 45 59 0
-312 -45 -59 0
312 -44 -58 45 -59 0
312 -44 -58 -45 59 0
-313 46 0
-313 60 0
-313 47 61 0
-313 -47 -61 0
313 -46 -60 47 -61 0
313 -46 -60 -47 61 0
-314 42 0
-314 44 0
-314 43 45 0
-314 -43 -45 0
314 -42 -44 43 -45 0
314 -42 -44 -43 45 0
-315 52 0
-315 56 0
-315 53 57 0
-315 -53 -57 0
315 -52 -56 53 -57 0
315 -52 -56 -53 57 0
-316 54 0
-316 58 0
-316 55 59 0
-316 -55 -59 0
316 -54 -58 55 -59 0
316 -54 -58 -55 59 0
-317 42 0
-317 46 0
-317 43 47 0
-317 -43 -47 0
317 -42 -46 43 -47 0
317 -42 -46 -43 47 0
-318 50 0
-318 56 0
-318 51 57 0
-318 -51 -57 0
318 -50 -56 51 -57 0
318 -50 -56 -51 57 0
-319 54 0
-319 60 0
-319 55 61 0
-319 -55 -61 0
319 -54 -60 55 -61 0
319 -54 -60 -55 61 0
-320 42 0
-320 48 0
-320 43 49 0
-320 -43 -49 0
320 -42 -48 43 -49 0
320 -42 -48 -43 49 0
-321 50 0
-321 58 0
-321 51 59 0
-321 -51 -59 0
321 -50 -58 51 -59 0
321 -50 -58 -51 59 0
-322 52 0
-322 60 0
-322 53 61 0
-322 -53 -61 0
322 -52 -60 53 -61 0
322 -52 -60 -53 61 0
-323 44 0
-323 46 0
-323 45 47 0
-323 -45 -47 0
323 -44 -46 45 -47 0
323 -44 -46 -45 47 0
-324 50 0
-324 52 0
-324 51 53 0
-324 -51 -53 0
324 -50 -52 51 -53 0
324 -50 -52 -51 53 0
-325 58 0
-325 60 0
-325 59 61 0
-325 -59 -61 0
325 -58 -60 59 -61 0
325 -58 -60 -59 61 0
-326 44 0
-326 48 0
-326 45 49 0
-326 -45 -49 0
326 -44 -48 45 -49 0
326 -44 -48 -45 49 0
-327 50 0
-327 54 0
-327 51 55 0
-327 -51 -55 0
327 -50 -54 51 -55 0
327 -50 -54 -51 55 0
-328 56 0
-328 60 0
-328 57 61 0
-328 -57 -61 0
328 -56 -60 57 -61 0
328 -56 -60 -57 61 0
-329 46 0
-329 48 0
-329 47 49 0
-329 -47 -49 0
329 -46 -48 47 -49 0
329 -46 -48 -47 49 0
-330 52 0
-330 54 0
-330 53 55 0
-330 -53 -55 0
330 -52 -54 53 -55 0
330 -52 -54 -53 55 0
-331 56 0
-331 58 0
-331 57 59 0
-331 -57 -59 0
331 -56 -58 57 -59 0
331 -56 -58 -57 59 0
c K couleurs
7 12 17 22 27 32 37 0
8 13 18 23 28 33 38 0
9 14 19 24 29 34 39 0
10 15 20 25 30 35 40 0
11 16 21 26 31 36 41 0
1 0
-8 0
-9 0
-10 0
-11 0
-14 0
-15 0
-16 0
-20 0
-21 0
-26 0
